# 78959
param k := 6;
param n := 60;
param s := 1;
set E :=  (0,9) (0,19) (0,20) (1,6) (1,31) (1,36) (1,44) (2,44) (3,8) (3,19) (3,24) (3,31) (4,7) (5,36) (6,9) (6,12) (6,13) (6,48) (7,13) (7,30) (8,23) (8,35) (9,10) (11,22) (11,55) (11,57) (13,32) (13,47) (14,19) (15,32) (16,43) (16,47) (16,55) (17,39) (17,42) (18,49) (18,55) (21,25) (21,55) (23,46) (23,50) (24,53) (26,51) (27,40) (28,52) (29,39) (29,45) (29,49) (29,53) (33,50) (34,37) (34,59) (35,40) (36,45) (38,49) (41,46) (46,52) (48,49) (48,54) (48,59) (51,56) (52,56) (52,58);